sat
(:eliminated-vars    376
 :max-memory         19.05
 :memory             18.41
 :nlsat-conflicts    2957
 :nlsat-decisions    8801
 :nlsat-propagations 185980
 :nlsat-stages       1356
 :num-allocs         559246
 :rlimit-count       556291
 :time               0.09
 :total-time         0.10)
